c 10 promenne 100 klauzuli
c weights 2 -4 -7 -2 6 -2 4 -8 -2 4
p cnf 10 100
2 -3 4 7 8 10 0
2 -4 -5 -6 -7 -8 9 0
-2 3 4 5 8 9 -10 0
-1 2 -3 4 7 9 -10 0
1 2 4 -6 -7 8 -9 -10 0
-1 -3 4 -6 -7 8 -10 0
3 -4 -7 -8 9 10 0
-1 -2 4 6 -7 9 -10 0
2 3 4 5 6 -10 0
2 -4 9 -10 0
-1 -2 -3 4 5 6 -8 0
-3 -5 6 7 8 10 0
1 2 4 -5 6 9 0
3 -5 -6 7 -9 -10 0
3 -4 -5 -6 -7 -8 9 10 0
2 3 4 -5 -6 7 8 9 10 0
1 -3 -4 5 -6 8 -10 0
-2 -3 -8 9 0
-1 3 -6 8 -9 0
2 3 -6 -7 -8 -9 -10 0
-1 -4 -6 7 -8 -9 -10 0
-2 -3 5 -6 7 9 10 0
-3 5 6 9 10 0
3 -4 5 -6 7 8 -9 0
-4 -6 7 -8 9 10 0
1 4 -5 7 -8 10 0
-1 -2 -5 -7 -8 9 -10 0
-2 -6 7 8 -9 0
1 -2 -3 -4 -5 7 8 -9 0
-1 -2 3 8 -9 10 0
1 3 -5 -7 -8 9 -10 0
-2 3 -5 0
-1 2 3 4 5 -6 8 10 0
1 2 -3 -4 6 7 -8 9 10 0
-2 -3 -4 -5 6 -7 -8 -9 10 0
-2 3 4 5 -7 -8 -10 0
-1 -3 4 6 -8 9 10 0
-3 4 -5 -7 9 -10 0
-2 -4 -6 7 -9 10 0
-2 -8 -10 0
-1 2 3 -9 -10 0
-1 3 -5 -6 7 -8 -9 0
-2 -5 -6 -7 -8 0
1 -5 8 9 10 0
-1 -2 -3 4 -5 -8 -9 10 0
2 5 -7 8 10 0
2 -3 -5 6 7 -8 9 -10 0
1 3 4 5 8 9 -10 0
1 2 3 -4 -5 -7 0
1 -2 -3 4 -5 7 8 0
1 -2 3 -4 6 0
1 -2 -4 -5 -7 8 0
-1 2 -3 4 -5 -6 -7 -8 9 10 0
-1 2 3 -4 -5 8 -10 0
2 -5 -8 -9 0
2 -3 -4 5 -6 7 9 -10 0
-1 -2 -3 -6 9 10 0
-1 2 -3 -4 5 9 -10 0
-1 4 5 6 7 -8 9 10 0
2 -3 5 -7 9 0
-1 -2 3 4 7 -8 9 10 0
2 3 5 6 7 -9 -10 0
1 2 -4 5 6 -8 -9 0
1 -2 3 -4 5 6 7 -8 0
-1 2 3 -4 -5 -6 7 -8 -9 10 0
1 2 4 5 -7 8 -9 -10 0
-1 -3 5 -6 7 -8 -9 0
-1 3 4 -6 9 10 0
2 -3 -7 -8 -9 0
-1 -2 4 5 6 -8 9 -10 0
-2 3 4 -6 7 9 -10 0
-1 3 6 7 -10 0
3 -4 5 7 8 -9 10 0
-1 -2 -3 -4 7 -8 10 0
-1 -4 -5 6 10 0
-2 4 -6 -8 -10 0
-2 -5 -7 -8 -9 10 0
-1 3 -5 0
-1 2 -3 4 -6 8 9 0
-1 2 3 4 -5 -8 9 10 0
1 -2 4 6 -7 -10 0
1 2 4 7 0
1 -2 -6 -7 8 -9 10 0
-2 -5 -6 8 -9 0
1 2 -3 -4 -5 -7 8 10 0
-1 -2 3 4 7 -8 9 0
-1 -2 -4 5 6 -10 0
-1 -4 6 7 -8 9 10 0
1 2 -3 4 -5 -6 -7 -8 -10 0
1 2 -4 -5 6 -7 -8 0
-1 -2 -5 9 -10 0
2 4 5 6 -7 -8 -10 0
2 3 4 6 7 9 -10 0
1 2 3 5 -6 7 9 10 0
-1 2 -3 4 5 6 -8 9 10 0
1 4 5 6 -8 -9 10 0
-2 -4 8 10 0
-3 4 5 -7 10 0
-2 -3 6 7 8 -9 0
1 2 -3 -4 -5 6 7 0
